unsat
(forall ((A (_ BitVec 17))
         (B (_ BitVec 17))
         (C (_ BitVec 17))
         (D (_ BitVec 13))
         (E (_ BitVec 13))
         (F (_ BitVec 17))
         (G (_ BitVec 24))
         (H (_ BitVec 32))
         (I (_ BitVec 42))
         (J (_ BitVec 17))
         (K (_ BitVec 17))
         (L (_ BitVec 51))
         (M (_ BitVec 17))
         (N (_ BitVec 1))
         (O (_ BitVec 1))
         (P (_ BitVec 24))
         (Q (_ BitVec 1))
         (R (_ BitVec 1))
         (S (_ BitVec 17))
         (T (_ BitVec 1))
         (U (_ BitVec 17))
         (V (_ BitVec 1))
         (W (_ BitVec 1))
         (X (_ BitVec 17))
         (Y (_ BitVec 17))
         (Z (_ BitVec 17))
         (A1 (_ BitVec 17))
         (B1 (_ BitVec 17))
         (C1 (_ BitVec 1))
         (D1 (_ BitVec 17))
         (E1 (_ BitVec 14))
         (F1 (_ BitVec 17))
         (G1 (_ BitVec 1))
         (H1 (_ BitVec 3))
         (I1 (_ BitVec 32))
         (J1 (_ BitVec 8))
         (K1 (_ BitVec 17))
         (L1 (_ BitVec 17))
         (M1 (_ BitVec 24))
         (N1 (_ BitVec 1))
         (O1 (_ BitVec 32))
         (P1 (_ BitVec 24))
         (Q1 (_ BitVec 1)))
  (! (let ((a!1 (and (= ((_ extract 16 3) Y) #b00000000000000)
                     (= ((_ extract 16 3) S) #b00000000000000)
                     (or (= O #b1) (= ((_ extract 16 3) A1) #b00000000000000))
                     (or (= H1 #b000) (= H1 #b011) (not (= O #b1)))
                     (= ((_ extract 16 3) J) #b00000000000000)
                     (or (not (= O #b1))
                         (= ((_ extract 16 3) A1) #b00000000000000))
                     (not ((_ bit2bool 2) H1))
                     (= ((_ extract 16 3) Z) #b00000000000000)
                     (or (not (= T #b1)) (= ((_ extract 0 0) H1) #b1))
                     (= ((_ extract 16 3) K1) #b00000000000000)
                     (or (not (= H1 #b000)) (not (= O #b0)))
                     (or ((_ bit2bool 1) H1) (not (= W #b1))))))
       (= (INV!slice!1 A
                       B
                       C
                       D
                       E
                       F
                       G
                       H
                       I
                       J
                       K
                       L
                       M
                       N
                       O
                       P
                       Q
                       R
                       S
                       T
                       U
                       V
                       W
                       X
                       Y
                       Z
                       A1
                       B1
                       C1
                       D1
                       E1
                       F1
                       G1
                       H1
                       I1
                       J1
                       K1
                       L1
                       M1
                       N1
                       O1
                       P1
                       Q1)
          a!1))
     :weight 0))
